# variables to be replaced by infretis
variable	subcycles index infretis_subcycles
variable	timestep index infretis_timestep
variable	nsteps index infretis_nsteps
variable	initconf index infretis_initconf
variable	name index infretis_name
variable	lammpsdata index infretis_lammpsdata
variable	temperature index infretis_temperature
variable	seed index infretis_seed

units real
atom_style charge

dimension 3
boundary p p p

read_data ${lammpsdata}
read_dump ${initconf} 0 x y z vx vy vz box yes

pair_style	reaxff NULL safezone 3.0 mincap 150
pair_coeff	* * ../../lammps_input/qeq_ff.water O H
neighbor	0.5 bin
neigh_modify	every 1 delay 0 check yes

fix 1 all qeq/reaxff 1 0.0 10.0 1.0e-6 reaxff maxiter 400
fix 2 all nve

thermo ${subcycles}
thermo_style custom step ke pe etotal temp
thermo_modify flush yes

dump 1 all custom ${subcycles} ${name}.lammpstrj id type x y z vx vy vz
dump_modify 1 pbc yes flush yes
# we may also want .xtc files dumped. Use 'keep_traj_fnames = [".xtc"]
# in the output section of infretis.toml to save them
# dump 2 all xtc ${subcycles} ${name}.xtc
# dump_modify 2 pbc yes

timestep ${timestep}

run ${nsteps}
